10
1 0 845
2 0 124
2 1 645
3 0 1193
3 1 218
3 2 793
4 0 395
4 1 96
4 2 1258
4 3 323
5 0 426
5 1 678
5 2 945
5 3 247
5 4 892
6 0 1151
6 1 1077
6 2 189
6 3 1096
6 4 597
6 5 450
7 0 310
7 1 124
7 2 1089
7 3 556
7 4 43
7 5 82
7 6 337
8 0 1118
8 1 232
8 2 1211
8 3 69
8 4 504
8 5 772
8 6 252
8 7 626
9 0 1042
9 1 230
9 2 1178
9 3 1227
9 4 337
9 5 405
9 6 388
9 7 59
9 8 1258
